
Log started (V12.10.0.0) Fri Apr  9 00:24:59 2021


Problem 'asset.lp' read.
Read time = 0.00 sec. (0.12 ticks)
New value for default parallel thread count: 1
New value for time limit in seconds: 200
Version identifier: 12.10.0.0 | 2019-11-26 | 843d4de
CPXPARAM_Threads                                 1
CPXPARAM_TimeLimit                               200
Found incumbent of value -0.884110 after 0.00 sec. (0.06 ticks)
Tried aggregator 3 times.
MIP Presolve eliminated 223 rows and 77 columns.
MIP Presolve modified 960 coefficients.
Aggregator did 383 substitutions.
Reduced MIP has 516 rows, 577 columns, and 2355 nonzeros.
Reduced MIP has 494 binaries, 53 generals, 0 SOSs, and 0 indicators.
Presolve time = 0.01 sec. (5.19 ticks)
Probing fixed 42 vars, tightened 16 bounds.
Probing time = 0.00 sec. (1.67 ticks)
Cover probing fixed 0 vars, tightened 34 bounds.
Tried aggregator 1 time.
MIP Presolve eliminated 78 rows and 77 columns.
MIP Presolve modified 178 coefficients.
Reduced MIP has 438 rows, 500 columns, and 1918 nonzeros.
Reduced MIP has 433 binaries, 37 generals, 0 SOSs, and 0 indicators.
Presolve time = 0.00 sec. (1.81 ticks)
Probing time = 0.00 sec. (1.25 ticks)
Tried aggregator 1 time.
Detecting symmetries...
MIP Presolve modified 36 coefficients.
Reduced MIP has 438 rows, 500 columns, and 1918 nonzeros.
Reduced MIP has 433 binaries, 37 generals, 0 SOSs, and 0 indicators.
Presolve time = 0.00 sec. (1.34 ticks)
Probing time = 0.00 sec. (1.25 ticks)
Clique table members: 1309.
MIP emphasis: balance optimality and feasibility.
MIP search method: dynamic search.
Parallel mode: none, using 1 thread.
Root relaxation solution time = 0.01 sec. (5.05 ticks)

        Nodes                                         Cuts/
   Node  Left     Objective  IInf  Best Integer    Best Bound    ItCnt     Gap

*     0+    0                           -0.8841      353.9059              --- 
      0     0      263.5426   132       -0.8841      263.5426      363     --- 
      0     0      259.0717   132       -0.8841     Cuts: 209      563     --- 
      0     0      256.5261   132       -0.8841     Cuts: 209      664     --- 
      0     0      252.7211   132       -0.8841     Cuts: 187      844     --- 
*     0+    0                          234.2069      252.7211             7.91%
      0     0      252.3986   132      234.2069      Cuts: 86      924    7.77%
      0     0      252.0345   132      234.2069      Cuts: 66     1027    7.61%
Detecting symmetries...
      0     0      251.3671   132      234.2069      Cuts: 54     1097    7.33%
      0     0      251.2847   132      234.2069     Cuts: 124     1230    7.29%
*     0+    0                          239.7042      251.2847             4.83%
      0     0      251.0687   132      239.7042      Cuts: 62     1329    4.74%
      0     0      250.9494   132      239.7042     Cuts: 122     1427    4.69%
      0     0      250.8325   132      239.7042     Cuts: 121     1484    4.64%
      0     0      250.4135   132      239.7042      Cuts: 38     1535    4.47%
      0     0      250.1919   132      239.7042      Cuts: 30     1567    4.38%
*     0+    0                          239.7048      250.1919             4.37%
      0     0      250.1350   132      239.7048      Cuts: 43     1624    4.35%
      0     0      249.7940   132      239.7048      Cuts: 34     1665    4.21%
      0     0      249.7921   132      239.7048      Cuts: 60     1738    4.21%
      0     0      249.6651   132      239.7048      Cuts: 44     1807    4.16%
      0     0      249.5817   132      239.7048      Cuts: 24     1843    4.12%
      0     0      249.3016   132      239.7048      Cuts: 27     1905    4.00%
      0     0      249.1519   132      239.7048      Cuts: 38     1979    3.94%
      0     0      249.1471   132      239.7048      Cuts: 91     2050    3.94%
*     0+    0                          242.9559      249.1471             2.55%
*     0+    0                          245.8890      249.1471             1.33%
*     0+    0                          245.8897      249.1471             1.32%
*     0+    0                          245.8898      249.1471             1.32%
*     0+    0                          245.8906      249.1471             1.32%
      0     0        cutoff            245.8906      249.1471     2050    1.32%
Detecting symmetries...
      0     2      249.1471   176      245.8906      249.1343     2050    1.32%
Elapsed time = 0.21 sec. (199.51 ticks, tree = 0.01 MB, solutions = 8)
*   180+  121                          246.3634      248.0651             0.69%
*   180+  121                          246.3636      248.0651             0.69%
    272   175      246.3807    74      246.3636      248.0632     7425    0.69%
*   280+  181                          246.3637      248.0632             0.69%
*   280+  181                          246.3640      248.0632             0.69%
*   380+  248                          246.3656      248.0627             0.69%
    530   350      247.5825   109      246.3656      248.0606    11837    0.69%
    734   450      246.9558    97      246.3656      248.0347    17709    0.68%
    987   613        cutoff            246.3656      247.9442    23120    0.64%

Clique cuts applied:  42
Cover cuts applied:  7
Implied bound cuts applied:  223
Flow cuts applied:  13
Mixed integer rounding cuts applied:  35
Zero-half cuts applied:  16
Gomory fractional cuts applied:  3

Root node processing (before b&c):
  Real time             =    0.21 sec. (199.52 ticks)
Sequential b&c:
  Real time             =    0.91 sec. (1028.10 ticks)
                          ------------
Total (root+branch&cut) =    1.12 sec. (1227.62 ticks)

Solution pool: 14 solutions saved.

MIP - Integer optimal, tolerance (0.0001/1e-06):  Objective =  2.4636563660e+02
Current MIP best bound =  2.4638316009e+02 (gap = 0.0175235, 0.01%)
Solution time =    1.12 sec.  Iterations = 24630  Nodes = 1071 (598)
Deterministic time = 1227.62 ticks  (1095.21 ticks/sec)


Incumbent solution
Variable Name           Solution Value
F                           265.000000
f1                            0.924363
f2                           17.710000
y61                           1.000000
y70                           1.000000
y95                           1.000000
y109                          1.000000
y113                          1.000000
y150                          1.000000
y176                          1.000000
y214                          1.000000
y87                           1.000000
y158                          1.000000
y51                           1.000000
y56                           1.000000
y187                          1.000000
y178                          1.000000
y93                           1.000000
y198                          1.000000
y54                           1.000000
s1                            6.000000
s17                           6.000000
s27                           6.000000
s30                           6.000000
s61                           6.403719
s70                           6.311488
s74                           6.000000
s95                           6.085651
s109                          6.156984
s113                          6.200735
s121                          6.000000
s122                          6.000000
s150                          6.395973
s176                          6.466999
s185                          6.000000
s210                          6.000000
s212                          6.020000
s149                          6.130000
s151                          6.180000
s21                           6.370000
s118                          6.390000
s214                          6.561051
s87                           6.675971
s158                          7.391078
s51                           7.490511
s56                           7.512787
s187                          7.793856
s178                          7.459621
s93                           7.759878
s198                          7.479750
s54                           7.920739
x95x51x1                      1.000000
x23x150x1                     1.000000
x34x95x1                      1.000000
x146x70x1                     1.000000
x86x70x1                      1.000000
x132x178x1                    1.000000
x182x87x1                     1.000000
x14x109x2                     1.000000
x2x113x2                      1.000000
x177x61x2                     2.000000
x4x109x2                      1.000000
x23x176x2                     1.000000
x146x113x2                    1.000000
x86x150x2                     1.000000
x95x56x3                      1.000000
x2x214x3                      1.000000
x34x95x3                      1.000000
x19x176x3                     1.000000
x19x214x3                     1.000000
x132x158x3                    1.000000
x182x87x3                     1.000000
x61x0x2                       2.000000
x70x0x1                       2.000000
x109x158x2                    1.000000
x109x198x2                    1.000000
x113x178x2                    1.000000
x113x198x2                    1.000000
x150x187x1                    1.000000
x150x0x2                      1.000000
x176x93x2                     1.000000
x176x93x3                     1.000000
x214x187x3                    1.000000
x214x54x3                     1.000000
x87x0x1                       1.000000
x87x54x3                      1.000000
x158x0x2                      1.000000
x158x0x3                      1.000000
x51x0x1                       2.000000
x56x0x3                       2.000000
x187x0x1                      1.000000
x187x0x3                      1.000000
x178x0x1                      1.000000
x178x0x2                      1.000000
x93x0x2                       1.000000
x93x0x3                       1.000000
x198x0x2                      2.000000
x54x0x3                       2.000000
z95z51z1                      1.000000
z95z56z3                      1.000000
s14                           3.963780
z14z61z2                      1.000000
z14z109z2                     1.000000
z14z113z2                     1.000000
z14z212z2                     1.000000
z14z118z2                     1.000000
z14z198z2                     1.000000
s2                            4.817370
z2z113z2                      1.000000
z2z214z3                      1.000000
z2z198z2                      1.000000
z2z54z3                       1.000000
s177                          4.814950
z177z61z2                     1.000000
z177z198z2                    1.000000
s4                            4.770130
z4z109z2                      1.000000
z4z198z2                      1.000000
s23                           4.856670
z23z150z1                     1.000000
z23z176z2                     1.000000
z23z198z2                     1.000000
s34                           4.785510
z34z95z1                      1.000000
z34z95z3                      1.000000
z34z51z1                      1.000000
z34z56z3                      1.000000
z34z54z3                      1.000000
s19                           4.866670
z19z176z3                     1.000000
z19z214z3                     1.000000
z19z56z3                      1.000000
z19z54z3                      1.000000
s146                          4.916570
z146z70z1                     1.000000
z146z113z2                    1.000000
z146z198z2                    1.000000
s86                           5.055360
z86z70z1                      1.000000
z86z150z2                     1.000000
z86z198z2                     1.000000
s132                          5.010810
z132z158z3                    1.000000
z132z178z1                    1.000000
z132z54z3                     1.000000
s182                          4.998100
z182z87z1                     1.000000
z182z87z3                     1.000000
z182z54z3                     1.000000
z109z158z2                    1.000000
z109z198z2                    1.000000
z113z178z2                    1.000000
z113z198z2                    1.000000
z150z187z1                    1.000000
z176z93z2                     1.000000
z176z93z3                     1.000000
z214z187z3                    1.000000
z214z54z3                     1.000000
z87z54z3                      1.000000
All other variables in the range 1-1039 are 0.
